certificates/rado_a9_c116_N16.drat
-15 -16 0
d -15 -13 -16 0
-14 -16 0
-16 0
14 0
-4 0
-13 0
3 0
5 0
12 0
15 0
-11 0
0
